17	4
20	15	18	13	
0	0	0	0	0	3	2	3	4	
10	6	0	10	0	3	5	10	17	
8	10	0	0	1	2	8	17	
5	6	0	0	2	3	6	7	10	
10	0	0	6	4	3	9	12	17	
100	0	4	7	7	2	17	17	
50	5	0	8	0	2	11	17	
75	0	0	2	0	3	13	17	17	
150	0	0	0	3	3	11	14	17	
50	8	0	0	6	3	13	15	17	
150	0	6	2	0	3	17	17	17	
175	6	0	10	0	2	16	17	
3	6	6	9	0	1	17	
6	0	6	0	0	3	17	17	17	
9	0	7	0	4	1	17	
4	0	0	10	1	1	17	
0	0	0	0	0	0	
